(set-info :smt-lib-version 2.6)
(set-logic UF)
(set-info :source |Benchmarks from the paper: "Extending Sledgehammer with SMT Solvers" by Jasmin Blanchette, Sascha Bohme, and Lawrence C. Paulson, CADE 2011.  Translated to SMT2 by Andrew Reynolds and Morgan Deters.|)
(set-info :category "industrial")
(set-info :status unknown)
(declare-sort S1 0)
(declare-sort S2 0)
(declare-sort S3 0)
(declare-sort S4 0)
(declare-sort S5 0)
(declare-sort S6 0)
(declare-sort S7 0)
(declare-sort S8 0)
(declare-sort S9 0)
(declare-sort S10 0)
(declare-sort S11 0)
(declare-sort S12 0)
(declare-sort S13 0)
(declare-sort S14 0)
(declare-sort S15 0)
(declare-sort S16 0)
(declare-sort S17 0)
(declare-sort S18 0)
(declare-sort S19 0)
(declare-sort S20 0)
(declare-sort S21 0)
(declare-sort S22 0)
(declare-sort S23 0)
(declare-sort S24 0)
(declare-sort S25 0)
(declare-sort S26 0)
(declare-sort S27 0)
(declare-sort S28 0)
(declare-sort S29 0)
(declare-sort S30 0)
(declare-sort S31 0)
(declare-sort S32 0)
(declare-sort S33 0)
(declare-sort S34 0)
(declare-sort S35 0)
(declare-sort S36 0)
(declare-sort S37 0)
(declare-sort S38 0)
(declare-sort S39 0)
(declare-sort S40 0)
(declare-sort S41 0)
(declare-sort S42 0)
(declare-sort S43 0)
(declare-sort S44 0)
(declare-sort S45 0)
(declare-sort S46 0)
(declare-sort S47 0)
(declare-sort S48 0)
(declare-sort S49 0)
(declare-sort S50 0)
(declare-sort S51 0)
(declare-sort S52 0)
(declare-sort S53 0)
(declare-sort S54 0)
(declare-sort S55 0)
(declare-sort S56 0)
(declare-sort S57 0)
(declare-fun f1 () S1)
(declare-fun f2 () S1)
(declare-fun f3 (S4 S3) S5)
(declare-fun f4 (S2) S4)
(declare-fun f5 (S6) S5)
(declare-fun f6 (S2 S3) S6)
(declare-fun f7 (S8 S3) S9)
(declare-fun f8 (S10 S7) S8)
(declare-fun f9 () S10)
(declare-fun f10 (S11 S12) S9)
(declare-fun f11 () S11)
(declare-fun f12 (S7 S3) S12)
(declare-fun f13 (S14 S13) S11)
(declare-fun f14 () S14)
(declare-fun f15 (S13 S12) S12)
(declare-fun f16 (S15 S6) S1)
(declare-fun f17 (S16 S15) S15)
(declare-fun f18 (S17 S6) S16)
(declare-fun f19 () S17)
(declare-fun f20 (S18 S15) S1)
(declare-fun f21 (S19 S6) S18)
(declare-fun f22 () S19)
(declare-fun f23 (S12 S3) S1)
(declare-fun f24 (S20 S3) S13)
(declare-fun f25 () S20)
(declare-fun f26 (S21 S12) S1)
(declare-fun f27 (S22 S3) S21)
(declare-fun f28 () S22)
(declare-fun f29 (S23 S21) S21)
(declare-fun f30 (S24 S12) S23)
(declare-fun f31 () S24)
(declare-fun f32 (S25 S21) S1)
(declare-fun f33 (S26 S12) S25)
(declare-fun f34 () S26)
(declare-fun f35 () S17)
(declare-fun f36 () S20)
(declare-fun f37 () S24)
(declare-fun f38 () S15)
(declare-fun f39 () S12)
(declare-fun f40 () S21)
(declare-fun f41 (S27 S9) S1)
(declare-fun f42 (S28 S29) S27)
(declare-fun f43 () S28)
(declare-fun f44 (S30 S29) S29)
(declare-fun f45 (S31 S29) S30)
(declare-fun f46 (S32 S29) S31)
(declare-fun f47 () S32)
(declare-fun f48 () S29)
(declare-fun f49 () S31)
(declare-fun f50 () S29)
(declare-fun f51 () S31)
(declare-fun f52 (S33 S6) S29)
(declare-fun f53 () S33)
(declare-fun f54 () S6)
(declare-fun f55 (S34 S4) S12)
(declare-fun f56 () S34)
(declare-fun f57 () S4)
(declare-fun f58 (S35 S6) S9)
(declare-fun f59 (S36 S35) S15)
(declare-fun f60 () S36)
(declare-fun f61 (S37 S8) S12)
(declare-fun f62 () S37)
(declare-fun f63 (S38 S11) S21)
(declare-fun f64 () S38)
(declare-fun f65 (S41 S40) S1)
(declare-fun f66 (S42 S29) S41)
(declare-fun f67 (S43 S40) S42)
(declare-fun f68 (S44 S29) S43)
(declare-fun f69 (S45 S39) S44)
(declare-fun f70 () S45)
(declare-fun f71 () S45)
(declare-fun f72 (S3) S46)
(declare-fun f73 () S12)
(declare-fun f74 () S21)
(declare-fun f75 (S47 S9) S27)
(declare-fun f76 () S47)
(declare-fun f77 () S20)
(declare-fun f78 () S24)
(declare-fun f79 () S15)
(declare-fun f80 () S17)
(declare-fun f81 () S1)
(declare-fun f82 () S16)
(declare-fun f83 () S23)
(declare-fun f84 () S13)
(declare-fun f85 (S48 S1) S6)
(declare-fun f86 () S48)
(declare-fun f87 () S27)
(declare-fun f88 (S49 S46) S1)
(declare-fun f89 () S49)
(declare-fun f90 (S50 S5) S1)
(declare-fun f91 () S50)
(declare-fun f92 () S30)
(declare-fun f93 (S51 S9) S8)
(declare-fun f94 () S51)
(declare-fun f95 (S53 S52) S30)
(declare-fun f96 (S54 S3) S53)
(declare-fun f97 () S54)
(declare-fun f98 (S56 S55) S30)
(declare-fun f99 (S57 S29) S56)
(declare-fun f100 () S57)
(assert (not (= f1 f2)))
(assert (forall ((?v0 S2) (?v1 S3)) (= (f3 (f4 ?v0) ?v1) (f5 (f6 ?v0 ?v1)))))
(assert (forall ((?v0 S7) (?v1 S3)) (= (f7 (f8 f9 ?v0) ?v1) (f10 f11 (f12 ?v0 ?v1)))))
(assert (forall ((?v0 S13) (?v1 S12)) (= (f10 (f13 f14 ?v0) ?v1) (f10 f11 (f15 ?v0 ?v1)))))
(assert (forall ((?v0 S6) (?v1 S15) (?v2 S6)) (= (= (f16 (f17 (f18 f19 ?v0) ?v1) ?v2) f1) (or (= ?v2 ?v0) (= (f20 (f21 f22 ?v2) ?v1) f1)))))
(assert (forall ((?v0 S3) (?v1 S12) (?v2 S3)) (= (= (f23 (f15 (f24 f25 ?v0) ?v1) ?v2) f1) (or (= ?v2 ?v0) (= (f26 (f27 f28 ?v2) ?v1) f1)))))
(assert (forall ((?v0 S12) (?v1 S21) (?v2 S12)) (= (= (f26 (f29 (f30 f31 ?v0) ?v1) ?v2) f1) (or (= ?v2 ?v0) (= (f32 (f33 f34 ?v2) ?v1) f1)))))
(assert (forall ((?v0 S6) (?v1 S15) (?v2 S6)) (= (= (f16 (f17 (f18 f35 ?v0) ?v1) ?v2) f1) (=> (not (= ?v2 ?v0)) (= (f16 ?v1 ?v2) f1)))))
(assert (forall ((?v0 S3) (?v1 S12) (?v2 S3)) (= (= (f23 (f15 (f24 f36 ?v0) ?v1) ?v2) f1) (=> (not (= ?v2 ?v0)) (= (f23 ?v1 ?v2) f1)))))
(assert (forall ((?v0 S12) (?v1 S21) (?v2 S12)) (= (= (f26 (f29 (f30 f37 ?v0) ?v1) ?v2) f1) (=> (not (= ?v2 ?v0)) (= (f26 ?v1 ?v2) f1)))))
(assert (forall ((?v0 S6)) (= (= (f16 f38 ?v0) f1) true)))
(assert (forall ((?v0 S3)) (= (= (f23 f39 ?v0) f1) true)))
(assert (forall ((?v0 S12)) (= (= (f26 f40 ?v0) f1) true)))
(assert (not (= (f41 (f42 f43 (f44 (f45 (f46 f47 f48) (f44 (f45 f49 f50) (f44 (f45 f51 f48) f50))) (f52 f53 f54))) (f10 f11 (f55 f56 f57))) f1)))
(assert (= (f41 (f42 f43 (f44 (f45 f51 f48) f50)) (f10 f11 (f55 f56 f57))) f1))
(assert (= (f41 (f42 f43 (f44 (f45 f51 f48) f50)) (f10 f11 (f55 f56 f57))) f1))
(assert (forall ((?v0 S29) (?v1 S29) (?v2 S29) (?v3 S29) (?v4 S29)) (not (= (f44 (f45 f51 ?v0) ?v1) (f44 (f45 (f46 f47 ?v2) ?v3) ?v4)))))
(assert (forall ((?v0 S29) (?v1 S29) (?v2 S29) (?v3 S29) (?v4 S29)) (not (= (f44 (f45 (f46 f47 ?v0) ?v1) ?v2) (f44 (f45 f51 ?v3) ?v4)))))
(assert (forall ((?v0 S29) (?v1 S29) (?v2 S29) (?v3 S29)) (not (= (f44 (f45 f49 ?v0) ?v1) (f44 (f45 f51 ?v2) ?v3)))))
(assert (forall ((?v0 S29) (?v1 S29) (?v2 S29) (?v3 S29)) (not (= (f44 (f45 f51 ?v0) ?v1) (f44 (f45 f49 ?v2) ?v3)))))
(assert (forall ((?v0 S29) (?v1 S29) (?v2 S29) (?v3 S29) (?v4 S29)) (not (= (f44 (f45 f49 ?v0) ?v1) (f44 (f45 (f46 f47 ?v2) ?v3) ?v4)))))
(assert (forall ((?v0 S29) (?v1 S29) (?v2 S29) (?v3 S29) (?v4 S29)) (not (= (f44 (f45 (f46 f47 ?v0) ?v1) ?v2) (f44 (f45 f49 ?v3) ?v4)))))
(assert (forall ((?v0 S6) (?v1 S9)) (= (= (f41 (f42 f43 (f52 f53 ?v0)) ?v1) f1) true)))
(assert (forall ((?v0 S6) (?v1 S29) (?v2 S29)) (not (= (f52 f53 ?v0) (f44 (f45 f51 ?v1) ?v2)))))
(assert (forall ((?v0 S29) (?v1 S29) (?v2 S6)) (not (= (f44 (f45 f51 ?v0) ?v1) (f52 f53 ?v2)))))
(assert (forall ((?v0 S6) (?v1 S29) (?v2 S29) (?v3 S29)) (not (= (f52 f53 ?v0) (f44 (f45 (f46 f47 ?v1) ?v2) ?v3)))))
(assert (forall ((?v0 S29) (?v1 S29) (?v2 S29) (?v3 S6)) (not (= (f44 (f45 (f46 f47 ?v0) ?v1) ?v2) (f52 f53 ?v3)))))
(assert (forall ((?v0 S4) (?v1 S3) (?v2 S6)) (=> (= (f3 ?v0 ?v1) (f5 ?v2)) (= (f26 (f27 f28 ?v1) (f55 f56 ?v0)) f1))))
(assert (forall ((?v0 S35) (?v1 S6) (?v2 S12)) (=> (= (f58 ?v0 ?v1) (f10 f11 ?v2)) (= (f20 (f21 f22 ?v1) (f59 f60 ?v0)) f1))))
(assert (forall ((?v0 S8) (?v1 S3) (?v2 S12)) (=> (= (f7 ?v0 ?v1) (f10 f11 ?v2)) (= (f26 (f27 f28 ?v1) (f61 f62 ?v0)) f1))))
(assert (forall ((?v0 S11) (?v1 S12) (?v2 S12)) (=> (= (f10 ?v0 ?v1) (f10 f11 ?v2)) (= (f32 (f33 f34 ?v1) (f63 f64 ?v0)) f1))))
(assert (forall ((?v0 S6) (?v1 S6)) (= (= (f52 f53 ?v0) (f52 f53 ?v1)) (= ?v0 ?v1))))
(assert (forall ((?v0 S29) (?v1 S29) (?v2 S29) (?v3 S29)) (= (= (f44 (f45 f49 ?v0) ?v1) (f44 (f45 f49 ?v2) ?v3)) (and (= ?v0 ?v2) (= ?v1 ?v3)))))
(assert (forall ((?v0 S29) (?v1 S29) (?v2 S29) (?v3 S29) (?v4 S29) (?v5 S29)) (= (= (f44 (f45 (f46 f47 ?v0) ?v1) ?v2) (f44 (f45 (f46 f47 ?v3) ?v4) ?v5)) (and (= ?v0 ?v3) (and (= ?v1 ?v4) (= ?v2 ?v5))))))
(assert (forall ((?v0 S29) (?v1 S29) (?v2 S29) (?v3 S29)) (= (= (f44 (f45 f51 ?v0) ?v1) (f44 (f45 f51 ?v2) ?v3)) (and (= ?v0 ?v2) (= ?v1 ?v3)))))
(assert (forall ((?v0 S29) (?v1 S29) (?v2 S6)) (not (= (f44 (f45 f49 ?v0) ?v1) (f52 f53 ?v2)))))
(assert (forall ((?v0 S6) (?v1 S29) (?v2 S29)) (not (= (f52 f53 ?v0) (f44 (f45 f49 ?v1) ?v2)))))
(assert (forall ((?v0 S3) (?v1 S4)) (=> (= (f26 (f27 f28 ?v0) (f55 f56 ?v1)) f1) (exists ((?v2 S6)) (= (f3 ?v1 ?v0) (f5 ?v2))))))
(assert (forall ((?v0 S6) (?v1 S35)) (=> (= (f20 (f21 f22 ?v0) (f59 f60 ?v1)) f1) (exists ((?v2 S12)) (= (f58 ?v1 ?v0) (f10 f11 ?v2))))))
(assert (forall ((?v0 S3) (?v1 S8)) (=> (= (f26 (f27 f28 ?v0) (f61 f62 ?v1)) f1) (exists ((?v2 S12)) (= (f7 ?v1 ?v0) (f10 f11 ?v2))))))
(assert (forall ((?v0 S12) (?v1 S11)) (=> (= (f32 (f33 f34 ?v0) (f63 f64 ?v1)) f1) (exists ((?v2 S12)) (= (f10 ?v1 ?v0) (f10 f11 ?v2))))))
(assert (forall ((?v0 S39) (?v1 S29) (?v2 S29) (?v3 S40)) (let ((?v_0 (f44 (f45 f51 ?v1) ?v2))) (= (f65 (f66 (f67 (f68 (f69 f70 ?v0) ?v_0) ?v3) (f44 (f45 (f46 f47 ?v1) (f44 (f45 f49 ?v2) ?v_0)) (f52 f53 f54))) ?v3) f1))))
(assert (forall ((?v0 S39) (?v1 S29) (?v2 S29) (?v3 S40) (?v4 S29) (?v5 S40)) (let ((?v_0 (f69 f71 ?v0)) (?v_1 (f44 (f45 f51 ?v1) ?v2))) (= (= (f65 (f66 (f67 (f68 ?v_0 ?v_1) ?v3) ?v4) ?v5) f1) (= (f65 (f66 (f67 (f68 ?v_0 (f44 (f45 (f46 f47 ?v1) (f44 (f45 f49 ?v2) ?v_1)) (f52 f53 f54))) ?v3) ?v4) ?v5) f1)))))
(assert (forall ((?v0 S12) (?v1 S12)) (= (= (f10 f11 ?v0) (f10 f11 ?v1)) (= ?v0 ?v1))))
(assert (forall ((?v0 S3) (?v1 S3)) (= (= (f72 ?v0) (f72 ?v1)) (= ?v0 ?v1))))
(assert (forall ((?v0 S6) (?v1 S6)) (= (= (f5 ?v0) (f5 ?v1)) (= ?v0 ?v1))))
(assert (forall ((?v0 S2)) (= (f55 f56 (f4 ?v0)) f73)))
(assert (forall ((?v0 S7)) (= (f61 f62 (f8 f9 ?v0)) f73)))
(assert (forall ((?v0 S13)) (= (f63 f64 (f13 f14 ?v0)) f74)))
(assert (forall ((?v0 S9) (?v1 S9) (?v2 S29)) (let ((?v_0 (f42 f43 ?v2))) (=> (= (f41 (f75 f76 ?v0) ?v1) f1) (=> (= (f41 ?v_0 ?v0) f1) (= (f41 ?v_0 ?v1) f1))))))
(assert (forall ((?v0 S29) (?v1 S9) (?v2 S9)) (let ((?v_0 (f42 f43 ?v0))) (=> (= (f41 ?v_0 ?v1) f1) (=> (= (f41 (f75 f76 ?v1) ?v2) f1) (= (f41 ?v_0 ?v2) f1))))))
(assert (forall ((?v0 S4) (?v1 S3) (?v2 S6)) (let ((?v_0 (f55 f56 ?v0))) (=> (= (f3 ?v0 ?v1) (f5 ?v2)) (= (f15 (f24 f77 ?v1) ?v_0) ?v_0)))))
(assert (forall ((?v0 S8) (?v1 S3) (?v2 S12)) (let ((?v_0 (f61 f62 ?v0))) (=> (= (f7 ?v0 ?v1) (f10 f11 ?v2)) (= (f15 (f24 f77 ?v1) ?v_0) ?v_0)))))
(assert (forall ((?v0 S11) (?v1 S12) (?v2 S12)) (let ((?v_0 (f63 f64 ?v0))) (=> (= (f10 ?v0 ?v1) (f10 f11 ?v2)) (= (f29 (f30 f78 ?v1) ?v_0) ?v_0)))))
(assert (forall ((?v0 S39) (?v1 S29) (?v2 S40) (?v3 S29) (?v4 S40) (?v5 S29)) (let ((?v_0 (f69 f70 ?v0))) (=> (= (f65 (f66 (f67 (f68 ?v_0 ?v1) ?v2) ?v3) ?v4) f1) (= (f65 (f66 (f67 (f68 ?v_0 (f44 (f45 f49 ?v1) ?v5)) ?v2) (f44 (f45 f49 ?v3) ?v5)) ?v4) f1)))))
(assert (forall ((?v0 S39) (?v1 S29) (?v2 S40) (?v3 S29) (?v4 S40) (?v5 S29) (?v6 S29)) (let ((?v_0 (f69 f70 ?v0))) (=> (= (f65 (f66 (f67 (f68 ?v_0 ?v1) ?v2) ?v3) ?v4) f1) (= (f65 (f66 (f67 (f68 ?v_0 (f44 (f45 (f46 f47 ?v1) ?v5) ?v6)) ?v2) (f44 (f45 (f46 f47 ?v3) ?v5) ?v6)) ?v4) f1)))))
(assert (forall ((?v0 S39) (?v1 S6) (?v2 S29) (?v3 S40)) (= (f65 (f66 (f67 (f68 (f69 f70 ?v0) (f44 (f45 f49 (f52 f53 ?v1)) ?v2)) ?v3) ?v2) ?v3) f1)))
(assert (forall ((?v0 S39) (?v1 S29) (?v2 S40) (?v3 S6) (?v4 S40) (?v5 S29) (?v6 S29) (?v7 S40)) (let ((?v_0 (f69 f71 ?v0))) (=> (= (f65 (f66 (f67 (f68 ?v_0 ?v1) ?v2) (f52 f53 ?v3)) ?v4) f1) (=> (= (f65 (f66 (f67 (f68 ?v_0 ?v5) ?v4) ?v6) ?v7) f1) (= (f65 (f66 (f67 (f68 ?v_0 (f44 (f45 f49 ?v1) ?v5)) ?v2) ?v6) ?v7) f1))))))
(assert (forall ((?v0 S6)) (= (= (f20 (f21 f22 ?v0) f79) f1) true)))
(assert (forall ((?v0 S3)) (= (= (f26 (f27 f28 ?v0) f73) f1) true)))
(assert (forall ((?v0 S12)) (= (= (f32 (f33 f34 ?v0) f74) f1) true)))
(assert (forall ((?v0 S6)) (= (f20 (f21 f22 ?v0) f79) f1)))
(assert (forall ((?v0 S3)) (= (f26 (f27 f28 ?v0) f73) f1)))
(assert (forall ((?v0 S12)) (= (f32 (f33 f34 ?v0) f74) f1)))
(assert (forall ((?v0 S12)) (= (f26 f74 ?v0) f1)))
(assert (forall ((?v0 S3)) (= (f23 f73 ?v0) f1)))
(assert (forall ((?v0 S6) (?v1 S15) (?v2 S6)) (let ((?v_0 (f21 f22 ?v0))) (=> (=> (not (= (f20 ?v_0 ?v1) f1)) (= ?v0 ?v2)) (= (f20 ?v_0 (f17 (f18 f80 ?v2) ?v1)) f1)))))
(assert (forall ((?v0 S12) (?v1 S21) (?v2 S12)) (let ((?v_0 (f33 f34 ?v0))) (=> (=> (not (= (f32 ?v_0 ?v1) f1)) (= ?v0 ?v2)) (= (f32 ?v_0 (f29 (f30 f78 ?v2) ?v1)) f1)))))
(assert (forall ((?v0 S3) (?v1 S12) (?v2 S3)) (let ((?v_0 (f27 f28 ?v0))) (=> (=> (not (= (f26 ?v_0 ?v1) f1)) (= ?v0 ?v2)) (= (f26 ?v_0 (f15 (f24 f77 ?v2) ?v1)) f1)))))
(assert (forall ((?v0 S6) (?v1 S6) (?v2 S15)) (let ((?v_0 (f21 f22 ?v0))) (=> (= (f20 ?v_0 (f17 (f18 f80 ?v1) ?v2)) f1) (=> (=> (= ?v0 ?v1) false) (=> (=> (= (f20 ?v_0 ?v2) f1) false) false))))))
(assert (forall ((?v0 S12) (?v1 S12) (?v2 S21)) (let ((?v_0 (f33 f34 ?v0))) (=> (= (f32 ?v_0 (f29 (f30 f78 ?v1) ?v2)) f1) (=> (=> (= ?v0 ?v1) false) (=> (=> (= (f32 ?v_0 ?v2) f1) false) false))))))
(assert (forall ((?v0 S3) (?v1 S3) (?v2 S12)) (let ((?v_0 (f27 f28 ?v0))) (=> (= (f26 ?v_0 (f15 (f24 f77 ?v1) ?v2)) f1) (=> (=> (= ?v0 ?v1) false) (=> (=> (= (f26 ?v_0 ?v2) f1) false) false))))))
(assert (forall ((?v0 S39) (?v1 S6) (?v2 S40)) (let ((?v_0 (f52 f53 ?v1))) (= (f65 (f66 (f67 (f68 (f69 f71 ?v0) ?v_0) ?v2) ?v_0) ?v2) f1))))
(assert (forall ((?v0 S39) (?v1 S6) (?v2 S40) (?v3 S29) (?v4 S40)) (let ((?v_0 (f52 f53 ?v1))) (=> (= (f65 (f66 (f67 (f68 (f69 f71 ?v0) ?v_0) ?v2) ?v3) ?v4) f1) (=> (=> (= ?v3 ?v_0) (=> (= ?v4 ?v2) false)) false)))))
(assert (forall ((?v0 S12)) (= (= (f26 f74 ?v0) f1) (= f81 f1))))
(assert (forall ((?v0 S3)) (= (= (f23 f73 ?v0) f1) (= f81 f1))))
(assert (forall ((?v0 S6) (?v1 S15)) (= (f20 (f21 f22 ?v0) (f17 (f18 f80 ?v0) ?v1)) f1)))
(assert (forall ((?v0 S12) (?v1 S21)) (= (f32 (f33 f34 ?v0) (f29 (f30 f78 ?v0) ?v1)) f1)))
(assert (forall ((?v0 S3) (?v1 S12)) (= (f26 (f27 f28 ?v0) (f15 (f24 f77 ?v0) ?v1)) f1)))
(assert (forall ((?v0 S6) (?v1 S15)) (= (f17 (f18 f80 ?v0) ?v1) (f17 f82 (f17 (f18 f19 ?v0) ?v1)))))
(assert (forall ((?v0 S12) (?v1 S21)) (= (f29 (f30 f78 ?v0) ?v1) (f29 f83 (f29 (f30 f31 ?v0) ?v1)))))
(assert (forall ((?v0 S3) (?v1 S12)) (= (f15 (f24 f77 ?v0) ?v1) (f15 f84 (f15 (f24 f25 ?v0) ?v1)))))
(assert (forall ((?v0 S6) (?v1 S15)) (= (f17 (f18 f80 ?v0) (f17 f82 ?v1)) (f17 f82 (f17 (f18 f35 ?v0) ?v1)))))
(assert (forall ((?v0 S12) (?v1 S21)) (= (f29 (f30 f78 ?v0) (f29 f83 ?v1)) (f29 f83 (f29 (f30 f37 ?v0) ?v1)))))
(assert (forall ((?v0 S3) (?v1 S12)) (= (f15 (f24 f77 ?v0) (f15 f84 ?v1)) (f15 f84 (f15 (f24 f36 ?v0) ?v1)))))
(assert (forall ((?v0 S12) (?v1 S21)) (let ((?v_0 (f30 f78 ?v0))) (let ((?v_1 (f29 ?v_0 ?v1))) (= (f29 ?v_0 ?v_1) ?v_1)))))
(assert (forall ((?v0 S3) (?v1 S12)) (let ((?v_0 (f24 f77 ?v0))) (let ((?v_1 (f15 ?v_0 ?v1))) (= (f15 ?v_0 ?v_1) ?v_1)))))
(assert (forall ((?v0 S12) (?v1 S12) (?v2 S21)) (let ((?v_1 (f30 f78 ?v0)) (?v_0 (f30 f78 ?v1))) (= (f29 ?v_1 (f29 ?v_0 ?v2)) (f29 ?v_0 (f29 ?v_1 ?v2))))))
(assert (forall ((?v0 S3) (?v1 S3) (?v2 S12)) (let ((?v_1 (f24 f77 ?v0)) (?v_0 (f24 f77 ?v1))) (= (f15 ?v_1 (f15 ?v_0 ?v2)) (f15 ?v_0 (f15 ?v_1 ?v2))))))
(assert (forall ((?v0 S6) (?v1 S6) (?v2 S15)) (let ((?v_0 (f21 f22 ?v0))) (= (= (f20 ?v_0 (f17 (f18 f80 ?v1) ?v2)) f1) (or (= ?v0 ?v1) (= (f20 ?v_0 ?v2) f1))))))
(assert (forall ((?v0 S12) (?v1 S12) (?v2 S21)) (let ((?v_0 (f33 f34 ?v0))) (= (= (f32 ?v_0 (f29 (f30 f78 ?v1) ?v2)) f1) (or (= ?v0 ?v1) (= (f32 ?v_0 ?v2) f1))))))
(assert (forall ((?v0 S3) (?v1 S3) (?v2 S12)) (let ((?v_0 (f27 f28 ?v0))) (= (= (f26 ?v_0 (f15 (f24 f77 ?v1) ?v2)) f1) (or (= ?v0 ?v1) (= (f26 ?v_0 ?v2) f1))))))
(assert (forall ((?v0 S12) (?v1 S21) (?v2 S12)) (= (= (f26 (f29 (f30 f78 ?v0) ?v1) ?v2) f1) (or (= ?v0 ?v2) (= (f26 ?v1 ?v2) f1)))))
(assert (forall ((?v0 S3) (?v1 S12) (?v2 S3)) (= (= (f23 (f15 (f24 f77 ?v0) ?v1) ?v2) f1) (or (= ?v0 ?v2) (= (f23 ?v1 ?v2) f1)))))
(assert (forall ((?v0 S6) (?v1 S15) (?v2 S15)) (let ((?v_0 (f21 f22 ?v0)) (?v_1 (f18 f80 ?v0))) (=> (not (= (f20 ?v_0 ?v1) f1)) (=> (not (= (f20 ?v_0 ?v2) f1)) (= (= (f17 ?v_1 ?v1) (f17 ?v_1 ?v2)) (= ?v1 ?v2)))))))
(assert (forall ((?v0 S12) (?v1 S21) (?v2 S21)) (let ((?v_0 (f33 f34 ?v0)) (?v_1 (f30 f78 ?v0))) (=> (not (= (f32 ?v_0 ?v1) f1)) (=> (not (= (f32 ?v_0 ?v2) f1)) (= (= (f29 ?v_1 ?v1) (f29 ?v_1 ?v2)) (= ?v1 ?v2)))))))
(assert (forall ((?v0 S3) (?v1 S12) (?v2 S12)) (let ((?v_0 (f27 f28 ?v0)) (?v_1 (f24 f77 ?v0))) (=> (not (= (f26 ?v_0 ?v1) f1)) (=> (not (= (f26 ?v_0 ?v2) f1)) (= (= (f15 ?v_1 ?v1) (f15 ?v_1 ?v2)) (= ?v1 ?v2)))))))
(assert (forall ((?v0 S6) (?v1 S15) (?v2 S6)) (let ((?v_0 (f21 f22 ?v0))) (=> (= (f20 ?v_0 ?v1) f1) (= (f20 ?v_0 (f17 (f18 f80 ?v2) ?v1)) f1)))))
(assert (forall ((?v0 S12) (?v1 S21) (?v2 S12)) (let ((?v_0 (f33 f34 ?v0))) (=> (= (f32 ?v_0 ?v1) f1) (= (f32 ?v_0 (f29 (f30 f78 ?v2) ?v1)) f1)))))
(assert (forall ((?v0 S3) (?v1 S12) (?v2 S3)) (let ((?v_0 (f27 f28 ?v0))) (=> (= (f26 ?v_0 ?v1) f1) (= (f26 ?v_0 (f15 (f24 f77 ?v2) ?v1)) f1)))))
(assert (forall ((?v0 S6) (?v1 S15)) (=> (= (f20 (f21 f22 ?v0) ?v1) f1) (= (f17 (f18 f80 ?v0) ?v1) ?v1))))
(assert (forall ((?v0 S12) (?v1 S21)) (=> (= (f32 (f33 f34 ?v0) ?v1) f1) (= (f29 (f30 f78 ?v0) ?v1) ?v1))))
(assert (forall ((?v0 S3) (?v1 S12)) (=> (= (f26 (f27 f28 ?v0) ?v1) f1) (= (f15 (f24 f77 ?v0) ?v1) ?v1))))
(assert (= f79 (f17 f82 f38)))
(assert (= f73 (f15 f84 f39)))
(assert (= f74 (f29 f83 f40)))
(assert (forall ((?v0 S6) (?v1 S15)) (= (f17 (f18 f80 ?v0) ?v1) (f17 f82 (f17 (f18 f19 ?v0) ?v1)))))
(assert (forall ((?v0 S12) (?v1 S21)) (= (f29 (f30 f78 ?v0) ?v1) (f29 f83 (f29 (f30 f31 ?v0) ?v1)))))
(assert (forall ((?v0 S3) (?v1 S12)) (= (f15 (f24 f77 ?v0) ?v1) (f15 f84 (f15 (f24 f25 ?v0) ?v1)))))
(assert (forall ((?v0 S39) (?v1 S29) (?v2 S40) (?v3 S40) (?v4 S29)) (let ((?v_0 (f69 f71 ?v0))) (=> (= (f65 (f66 (f67 (f68 ?v_0 ?v1) ?v2) (f52 f53 (f85 f86 f2))) ?v3) f1) (= (f65 (f66 (f67 (f68 ?v_0 (f44 (f45 f51 ?v1) ?v4)) ?v2) (f52 f53 f54)) ?v3) f1)))))
(assert (exists ((?v0 S6)) (= (f20 (f21 f22 ?v0) f79) f1)))
(assert (exists ((?v0 S3)) (= (f26 (f27 f28 ?v0) f73) f1)))
(assert (exists ((?v0 S12)) (= (f32 (f33 f34 ?v0) f74) f1)))
(assert (forall ((?v0 S15)) (=> (forall ((?v1 S6)) (= (f20 (f21 f22 ?v1) ?v0) f1)) (= f79 ?v0))))
(assert (forall ((?v0 S12)) (=> (forall ((?v1 S3)) (= (f26 (f27 f28 ?v1) ?v0) f1)) (= f73 ?v0))))
(assert (forall ((?v0 S21)) (=> (forall ((?v1 S12)) (= (f32 (f33 f34 ?v1) ?v0) f1)) (= f74 ?v0))))
(assert (forall ((?v0 S6) (?v1 S15)) (=> (= (f20 (f21 f22 ?v0) ?v1) f1) (exists ((?v2 S15)) (and (= ?v1 (f17 (f18 f80 ?v0) ?v2)) (not (= (f20 (f21 f22 ?v0) ?v2) f1)))))))
(assert (forall ((?v0 S12) (?v1 S21)) (=> (= (f32 (f33 f34 ?v0) ?v1) f1) (exists ((?v2 S21)) (and (= ?v1 (f29 (f30 f78 ?v0) ?v2)) (not (= (f32 (f33 f34 ?v0) ?v2) f1)))))))
(assert (forall ((?v0 S3) (?v1 S12)) (=> (= (f26 (f27 f28 ?v0) ?v1) f1) (exists ((?v2 S12)) (and (= ?v1 (f15 (f24 f77 ?v0) ?v2)) (not (= (f26 (f27 f28 ?v0) ?v2) f1)))))))
(assert (forall ((?v0 S6) (?v1 S15)) (=> (= (f20 (f21 f22 ?v0) ?v1) f1) (=> (forall ((?v2 S15)) (=> (= ?v1 (f17 (f18 f80 ?v0) ?v2)) (=> (not (= (f20 (f21 f22 ?v0) ?v2) f1)) false))) false))))
(assert (forall ((?v0 S12) (?v1 S21)) (=> (= (f32 (f33 f34 ?v0) ?v1) f1) (=> (forall ((?v2 S21)) (=> (= ?v1 (f29 (f30 f78 ?v0) ?v2)) (=> (not (= (f32 (f33 f34 ?v0) ?v2) f1)) false))) false))))
(assert (forall ((?v0 S3) (?v1 S12)) (=> (= (f26 (f27 f28 ?v0) ?v1) f1) (=> (forall ((?v2 S12)) (=> (= ?v1 (f15 (f24 f77 ?v0) ?v2)) (=> (not (= (f26 (f27 f28 ?v0) ?v2) f1)) false))) false))))
(assert (forall ((?v0 S12)) (= (= (f41 f87 (f10 f11 ?v0)) f1) false)))
(assert (forall ((?v0 S3)) (= (= (f88 f89 (f72 ?v0)) f1) false)))
(assert (forall ((?v0 S6)) (= (= (f90 f91 (f5 ?v0)) f1) false)))
(assert (forall ((?v0 S39) (?v1 S29) (?v2 S29) (?v3 S40)) (= (f65 (f66 (f67 (f68 (f69 f70 ?v0) (f44 (f45 (f46 f47 (f52 f53 (f85 f86 f2))) ?v1) ?v2)) ?v3) ?v2) ?v3) f1)))
(assert (forall ((?v0 S39) (?v1 S29) (?v2 S40) (?v3 S40) (?v4 S29) (?v5 S29) (?v6 S40) (?v7 S29)) (let ((?v_0 (f69 f71 ?v0))) (=> (= (f65 (f66 (f67 (f68 ?v_0 ?v1) ?v2) (f52 f53 (f85 f86 f1))) ?v3) f1) (=> (= (f65 (f66 (f67 (f68 ?v_0 ?v4) ?v3) ?v5) ?v6) f1) (= (f65 (f66 (f67 (f68 ?v_0 (f44 (f45 (f46 f47 ?v1) ?v4) ?v7)) ?v2) ?v5) ?v6) f1))))))
(assert (forall ((?v0 S39) (?v1 S29) (?v2 S40) (?v3 S40) (?v4 S29) (?v5 S29) (?v6 S40) (?v7 S29)) (let ((?v_0 (f69 f71 ?v0))) (=> (= (f65 (f66 (f67 (f68 ?v_0 ?v1) ?v2) (f52 f53 (f85 f86 f2))) ?v3) f1) (=> (= (f65 (f66 (f67 (f68 ?v_0 ?v4) ?v3) ?v5) ?v6) f1) (= (f65 (f66 (f67 (f68 ?v_0 (f44 (f45 (f46 f47 ?v1) ?v7) ?v4)) ?v2) ?v5) ?v6) f1))))))
(assert (forall ((?v0 S39) (?v1 S29) (?v2 S40) (?v3 S40) (?v4 S29) (?v5 S6) (?v6 S40) (?v7 S29) (?v8 S40)) (let ((?v_0 (f69 f71 ?v0))) (let ((?v_1 (f68 ?v_0 (f44 (f45 f51 ?v1) ?v4)))) (=> (= (f65 (f66 (f67 (f68 ?v_0 ?v1) ?v2) (f52 f53 (f85 f86 f1))) ?v3) f1) (=> (= (f65 (f66 (f67 (f68 ?v_0 ?v4) ?v3) (f52 f53 ?v5)) ?v6) f1) (=> (= (f65 (f66 (f67 ?v_1 ?v6) ?v7) ?v8) f1) (= (f65 (f66 (f67 ?v_1 ?v2) ?v7) ?v8) f1))))))))
(assert (forall ((?v0 S39) (?v1 S29) (?v2 S29) (?v3 S40)) (= (f65 (f66 (f67 (f68 (f69 f70 ?v0) (f44 (f45 (f46 f47 (f52 f53 (f85 f86 f1))) ?v1) ?v2)) ?v3) ?v1) ?v3) f1)))
(assert (forall ((?v0 S1)) (not (= f54 (f85 f86 ?v0)))))
(assert (forall ((?v0 S1)) (not (= (f85 f86 ?v0) f54))))
(assert (forall ((?v0 S39) (?v1 S29) (?v2 S40) (?v3 S40) (?v4 S29) (?v5 S29) (?v6 S40)) (let ((?v_0 (f69 f71 ?v0)) (?v_1 (f44 f92 ?v5))) (=> (= (f65 (f66 (f67 (f68 ?v_0 ?v1) ?v2) (f52 f53 (f85 f86 f1))) ?v3) f1) (=> (= (f65 (f66 (f67 (f68 ?v_0 ?v4) ?v3) ?v_1) ?v6) f1) (= (f65 (f66 (f67 (f68 ?v_0 (f44 (f45 f51 ?v1) ?v4)) ?v2) ?v_1) ?v6) f1))))))
(assert (forall ((?v0 S1) (?v1 S1)) (= (= (f85 f86 ?v0) (f85 f86 ?v1)) (= (= ?v0 f1) (= ?v1 f1)))))
(assert (forall ((?v0 S9) (?v1 S9) (?v2 S3)) (=> (= (f41 (f75 f76 ?v0) ?v1) f1) (= (f41 (f75 f76 (f7 (f93 f94 ?v0) ?v2)) (f7 (f93 f94 ?v1) ?v2)) f1))))
(assert (forall ((?v0 S29) (?v1 S29)) (= (= (f44 f92 ?v0) (f44 f92 ?v1)) (= ?v0 ?v1))))
(assert (forall ((?v0 S39) (?v1 S29) (?v2 S40) (?v3 S29) (?v4 S40)) (let ((?v_0 (f69 f71 ?v0)) (?v_1 (f44 f92 ?v3))) (=> (= (f65 (f66 (f67 (f68 ?v_0 ?v1) ?v2) ?v_1) ?v4) f1) (= (f65 (f66 (f67 (f68 ?v_0 (f44 f92 ?v1)) ?v2) ?v_1) ?v4) f1)))))
(assert (forall ((?v0 S6) (?v1 S15)) (= (= (f20 (f21 f22 ?v0) ?v1) f1) (= (f16 ?v1 ?v0) f1))))
(assert (forall ((?v0 S3) (?v1 S12)) (= (= (f26 (f27 f28 ?v0) ?v1) f1) (= (f23 ?v1 ?v0) f1))))
(assert (forall ((?v0 S12) (?v1 S21)) (= (= (f32 (f33 f34 ?v0) ?v1) f1) (= (f26 ?v1 ?v0) f1))))
(assert (forall ((?v0 S15)) (= (f17 f82 ?v0) ?v0)))
(assert (forall ((?v0 S12)) (= (f15 f84 ?v0) ?v0)))
(assert (forall ((?v0 S21)) (= (f29 f83 ?v0) ?v0)))
(assert (forall ((?v0 S15)) (= (exists ((?v1 S6)) (and (= (f20 (f21 f22 ?v1) f79) f1) (= (f16 ?v0 ?v1) f1))) (exists ((?v1 S6)) (= (f16 ?v0 ?v1) f1)))))
(assert (forall ((?v0 S12)) (= (exists ((?v1 S3)) (and (= (f26 (f27 f28 ?v1) f73) f1) (= (f23 ?v0 ?v1) f1))) (exists ((?v1 S3)) (= (f23 ?v0 ?v1) f1)))))
(assert (forall ((?v0 S21)) (= (exists ((?v1 S12)) (and (= (f32 (f33 f34 ?v1) f74) f1) (= (f26 ?v0 ?v1) f1))) (exists ((?v1 S12)) (= (f26 ?v0 ?v1) f1)))))
(assert (forall ((?v0 S39) (?v1 S29) (?v2 S40)) (let ((?v_0 (f44 f92 ?v1))) (= (f65 (f66 (f67 (f68 (f69 f70 ?v0) (f44 f92 ?v_0)) ?v2) ?v_0) ?v2) f1))))
(assert (forall ((?v0 S39) (?v1 S29) (?v2 S40) (?v3 S29) (?v4 S40)) (let ((?v_0 (f69 f70 ?v0))) (=> (= (f65 (f66 (f67 (f68 ?v_0 ?v1) ?v2) ?v3) ?v4) f1) (= (f65 (f66 (f67 (f68 ?v_0 (f44 f92 ?v1)) ?v2) (f44 f92 ?v3)) ?v4) f1)))))
(assert (forall ((?v0 S29) (?v1 S6)) (not (= (f44 f92 ?v0) (f52 f53 ?v1)))))
(assert (forall ((?v0 S6) (?v1 S29)) (not (= (f52 f53 ?v0) (f44 f92 ?v1)))))
(assert (forall ((?v0 S29) (?v1 S29) (?v2 S29)) (not (= (f44 (f45 f49 ?v0) ?v1) (f44 f92 ?v2)))))
(assert (forall ((?v0 S29) (?v1 S29) (?v2 S29)) (not (= (f44 f92 ?v0) (f44 (f45 f49 ?v1) ?v2)))))
(assert (forall ((?v0 S29) (?v1 S29) (?v2 S29) (?v3 S29)) (not (= (f44 (f45 (f46 f47 ?v0) ?v1) ?v2) (f44 f92 ?v3)))))
(assert (forall ((?v0 S29) (?v1 S29) (?v2 S29) (?v3 S29)) (not (= (f44 f92 ?v0) (f44 (f45 (f46 f47 ?v1) ?v2) ?v3)))))
(assert (forall ((?v0 S29) (?v1 S29) (?v2 S29)) (not (= (f44 (f45 f51 ?v0) ?v1) (f44 f92 ?v2)))))
(assert (forall ((?v0 S29) (?v1 S29) (?v2 S29)) (not (= (f44 f92 ?v0) (f44 (f45 f51 ?v1) ?v2)))))
(assert (forall ((?v0 S29) (?v1 S9)) (= (= (f41 (f42 f43 (f44 f92 ?v0)) ?v1) f1) (= (f41 (f42 f43 ?v0) ?v1) f1))))
(assert (forall ((?v0 S39) (?v1 S29) (?v2 S40) (?v3 S29) (?v4 S40) (?v5 S29)) (let ((?v_0 (f69 f71 ?v0)) (?v_1 (f44 f92 ?v3))) (=> (= (f65 (f66 (f67 (f68 ?v_0 ?v1) ?v2) ?v_1) ?v4) f1) (= (f65 (f66 (f67 (f68 ?v_0 (f44 (f45 f49 ?v1) ?v5)) ?v2) ?v_1) ?v4) f1)))))
(assert (forall ((?v0 S39) (?v1 S29) (?v2 S40) (?v3 S29) (?v4 S40) (?v5 S29) (?v6 S29)) (let ((?v_0 (f69 f71 ?v0)) (?v_1 (f44 f92 ?v3))) (=> (= (f65 (f66 (f67 (f68 ?v_0 ?v1) ?v2) ?v_1) ?v4) f1) (= (f65 (f66 (f67 (f68 ?v_0 (f44 (f45 (f46 f47 ?v1) ?v5) ?v6)) ?v2) ?v_1) ?v4) f1)))))
(assert (forall ((?v0 S39) (?v1 S29) (?v2 S29) (?v3 S40)) (let ((?v_0 (f44 f92 ?v1))) (= (f65 (f66 (f67 (f68 (f69 f70 ?v0) (f44 (f45 f49 ?v_0) ?v2)) ?v3) ?v_0) ?v3) f1))))
(assert (forall ((?v0 S39) (?v1 S29) (?v2 S40) (?v3 S29) (?v4 S40) (?v5 S29)) (let ((?v_0 (f69 f71 ?v0)) (?v_1 (f44 f92 ?v3))) (=> (= (f65 (f66 (f67 (f68 ?v_0 ?v1) ?v2) ?v_1) ?v4) f1) (= (f65 (f66 (f67 (f68 ?v_0 (f44 (f45 f51 ?v1) ?v5)) ?v2) ?v_1) ?v4) f1)))))
(assert (forall ((?v0 S39) (?v1 S29) (?v2 S29) (?v3 S29) (?v4 S40)) (let ((?v_0 (f44 f92 ?v1))) (= (f65 (f66 (f67 (f68 (f69 f70 ?v0) (f44 (f45 (f46 f47 ?v_0) ?v2) ?v3)) ?v4) ?v_0) ?v4) f1))))
(assert (forall ((?v0 S39) (?v1 S29) (?v2 S29) (?v3 S40) (?v4 S29) (?v5 S40)) (let ((?v_0 (f69 f71 ?v0))) (=> (= (f65 (f66 (f67 (f68 ?v_0 (f44 (f45 f51 ?v1) ?v2)) ?v3) ?v4) ?v5) f1) (=> (=> (= ?v4 (f52 f53 f54)) (=> (= (f65 (f66 (f67 (f68 ?v_0 ?v1) ?v3) (f52 f53 (f85 f86 f2))) ?v5) f1) false)) (=> (forall ((?v6 S40) (?v7 S6) (?v8 S40)) (=> (= (f65 (f66 (f67 (f68 ?v_0 ?v1) ?v3) (f52 f53 (f85 f86 f1))) ?v6) f1) (=> (= (f65 (f66 (f67 (f68 ?v_0 ?v2) ?v6) (f52 f53 ?v7)) ?v8) f1) (=> (= (f65 (f66 (f67 (f68 ?v_0 (f44 (f45 f51 ?v1) ?v2)) ?v8) ?v4) ?v5) f1) false)))) (=> (forall ((?v6 S29)) (let ((?v_1 (f44 f92 ?v6))) (=> (= ?v4 ?v_1) (=> (= (f65 (f66 (f67 (f68 ?v_0 ?v1) ?v3) ?v_1) ?v5) f1) false)))) (=> (forall ((?v6 S40) (?v7 S29)) (let ((?v_2 (f44 f92 ?v7))) (=> (= ?v4 ?v_2) (=> (= (f65 (f66 (f67 (f68 ?v_0 ?v1) ?v3) (f52 f53 (f85 f86 f1))) ?v6) f1) (=> (= (f65 (f66 (f67 (f68 ?v_0 ?v2) ?v6) ?v_2) ?v5) f1) false))))) false))))))))
(assert (forall ((?v0 S39) (?v1 S29) (?v2 S29) (?v3 S40) (?v4 S29) (?v5 S40)) (=> (= (f65 (f66 (f67 (f68 (f69 f71 ?v0) (f44 (f45 f49 ?v1) ?v2)) ?v3) ?v4) ?v5) f1) (=> (forall ((?v6 S6) (?v7 S40)) (let ((?v_0 (f69 f71 ?v0))) (=> (= (f65 (f66 (f67 (f68 ?v_0 ?v1) ?v3) (f52 f53 ?v6)) ?v7) f1) (=> (= (f65 (f66 (f67 (f68 ?v_0 ?v2) ?v7) ?v4) ?v5) f1) false)))) (=> (forall ((?v6 S29)) (let ((?v_1 (f44 f92 ?v6))) (=> (= ?v4 ?v_1) (=> (= (f65 (f66 (f67 (f68 (f69 f71 ?v0) ?v1) ?v3) ?v_1) ?v5) f1) false)))) false)))))
(assert (forall ((?v0 S39) (?v1 S29) (?v2 S29) (?v3 S29) (?v4 S40) (?v5 S29) (?v6 S40)) (=> (= (f65 (f66 (f67 (f68 (f69 f71 ?v0) (f44 (f45 (f46 f47 ?v1) ?v2) ?v3)) ?v4) ?v5) ?v6) f1) (=> (forall ((?v7 S40)) (let ((?v_0 (f69 f71 ?v0))) (=> (= (f65 (f66 (f67 (f68 ?v_0 ?v1) ?v4) (f52 f53 (f85 f86 f1))) ?v7) f1) (=> (= (f65 (f66 (f67 (f68 ?v_0 ?v2) ?v7) ?v5) ?v6) f1) false)))) (=> (forall ((?v7 S40)) (let ((?v_1 (f69 f71 ?v0))) (=> (= (f65 (f66 (f67 (f68 ?v_1 ?v1) ?v4) (f52 f53 (f85 f86 f2))) ?v7) f1) (=> (= (f65 (f66 (f67 (f68 ?v_1 ?v3) ?v7) ?v5) ?v6) f1) false)))) (=> (forall ((?v7 S29)) (let ((?v_2 (f44 f92 ?v7))) (=> (= ?v5 ?v_2) (=> (= (f65 (f66 (f67 (f68 (f69 f71 ?v0) ?v1) ?v4) ?v_2) ?v6) f1) false)))) false))))))
(assert (forall ((?v0 S3) (?v1 S52) (?v2 S29) (?v3 S9)) (= (= (f41 (f42 f43 (f44 (f95 (f96 f97 ?v0) ?v1) ?v2)) ?v3) f1) (= (f41 (f42 f43 ?v2) (f7 (f93 f94 ?v3) ?v0)) f1))))
(assert (forall ((?v0 S39) (?v1 S6) (?v2 S55) (?v3 S29) (?v4 S40)) (let ((?v_0 (f44 f92 ?v3))) (= (f65 (f66 (f67 (f68 (f69 f70 ?v0) (f44 (f98 (f99 f100 (f52 f53 ?v1)) ?v2) ?v_0)) ?v4) ?v_0) ?v4) f1))))
(assert (forall ((?v0 S29) (?v1 S55) (?v2 S29) (?v3 S3) (?v4 S52) (?v5 S29)) (not (= (f44 (f98 (f99 f100 ?v0) ?v1) ?v2) (f44 (f95 (f96 f97 ?v3) ?v4) ?v5)))))
(assert (forall ((?v0 S3) (?v1 S52) (?v2 S29) (?v3 S29) (?v4 S55) (?v5 S29)) (not (= (f44 (f95 (f96 f97 ?v0) ?v1) ?v2) (f44 (f98 (f99 f100 ?v3) ?v4) ?v5)))))
(assert (forall ((?v0 S29) (?v1 S55) (?v2 S29) (?v3 S29) (?v4 S55) (?v5 S29)) (= (= (f44 (f98 (f99 f100 ?v0) ?v1) ?v2) (f44 (f98 (f99 f100 ?v3) ?v4) ?v5)) (and (= ?v0 ?v3) (and (= ?v1 ?v4) (= ?v2 ?v5))))))
(assert (forall ((?v0 S3) (?v1 S52) (?v2 S29) (?v3 S3) (?v4 S52) (?v5 S29)) (= (= (f44 (f95 (f96 f97 ?v0) ?v1) ?v2) (f44 (f95 (f96 f97 ?v3) ?v4) ?v5)) (and (= ?v0 ?v3) (and (= ?v1 ?v4) (= ?v2 ?v5))))))
(assert (forall ((?v0 S39) (?v1 S29) (?v2 S40) (?v3 S29) (?v4 S40) (?v5 S55) (?v6 S29)) (let ((?v_0 (f69 f70 ?v0))) (=> (= (f65 (f66 (f67 (f68 ?v_0 ?v1) ?v2) ?v3) ?v4) f1) (= (f65 (f66 (f67 (f68 ?v_0 (f44 (f98 (f99 f100 ?v1) ?v5) ?v6)) ?v2) (f44 (f98 (f99 f100 ?v3) ?v5) ?v6)) ?v4) f1)))))
(assert (forall ((?v0 S6) (?v1 S29) (?v2 S55) (?v3 S29)) (not (= (f52 f53 ?v0) (f44 (f98 (f99 f100 ?v1) ?v2) ?v3)))))
(assert (forall ((?v0 S6) (?v1 S3) (?v2 S52) (?v3 S29)) (not (= (f52 f53 ?v0) (f44 (f95 (f96 f97 ?v1) ?v2) ?v3)))))
(assert (forall ((?v0 S29) (?v1 S55) (?v2 S29) (?v3 S6)) (not (= (f44 (f98 (f99 f100 ?v0) ?v1) ?v2) (f52 f53 ?v3)))))
(assert (forall ((?v0 S3) (?v1 S52) (?v2 S29) (?v3 S6)) (not (= (f44 (f95 (f96 f97 ?v0) ?v1) ?v2) (f52 f53 ?v3)))))
(assert (forall ((?v0 S29) (?v1 S29) (?v2 S55) (?v3 S29)) (not (= (f44 f92 ?v0) (f44 (f98 (f99 f100 ?v1) ?v2) ?v3)))))
(assert (forall ((?v0 S29) (?v1 S3) (?v2 S52) (?v3 S29)) (not (= (f44 f92 ?v0) (f44 (f95 (f96 f97 ?v1) ?v2) ?v3)))))
(assert (forall ((?v0 S29) (?v1 S55) (?v2 S29) (?v3 S29)) (not (= (f44 (f98 (f99 f100 ?v0) ?v1) ?v2) (f44 f92 ?v3)))))
(assert (forall ((?v0 S3) (?v1 S52) (?v2 S29) (?v3 S29)) (not (= (f44 (f95 (f96 f97 ?v0) ?v1) ?v2) (f44 f92 ?v3)))))
(assert (forall ((?v0 S29) (?v1 S29) (?v2 S29) (?v3 S55) (?v4 S29)) (not (= (f44 (f45 f49 ?v0) ?v1) (f44 (f98 (f99 f100 ?v2) ?v3) ?v4)))))
(assert (forall ((?v0 S29) (?v1 S29) (?v2 S3) (?v3 S52) (?v4 S29)) (not (= (f44 (f45 f49 ?v0) ?v1) (f44 (f95 (f96 f97 ?v2) ?v3) ?v4)))))
(assert (forall ((?v0 S29) (?v1 S55) (?v2 S29) (?v3 S29) (?v4 S29)) (not (= (f44 (f98 (f99 f100 ?v0) ?v1) ?v2) (f44 (f45 f49 ?v3) ?v4)))))
(assert (forall ((?v0 S3) (?v1 S52) (?v2 S29) (?v3 S29) (?v4 S29)) (not (= (f44 (f95 (f96 f97 ?v0) ?v1) ?v2) (f44 (f45 f49 ?v3) ?v4)))))
(assert (forall ((?v0 S29) (?v1 S29) (?v2 S29) (?v3 S29) (?v4 S55) (?v5 S29)) (not (= (f44 (f45 (f46 f47 ?v0) ?v1) ?v2) (f44 (f98 (f99 f100 ?v3) ?v4) ?v5)))))
(assert (forall ((?v0 S29) (?v1 S29) (?v2 S29) (?v3 S3) (?v4 S52) (?v5 S29)) (not (= (f44 (f45 (f46 f47 ?v0) ?v1) ?v2) (f44 (f95 (f96 f97 ?v3) ?v4) ?v5)))))
(assert (forall ((?v0 S29) (?v1 S55) (?v2 S29) (?v3 S29) (?v4 S29) (?v5 S29)) (not (= (f44 (f98 (f99 f100 ?v0) ?v1) ?v2) (f44 (f45 (f46 f47 ?v3) ?v4) ?v5)))))
(assert (forall ((?v0 S3) (?v1 S52) (?v2 S29) (?v3 S29) (?v4 S29) (?v5 S29)) (not (= (f44 (f95 (f96 f97 ?v0) ?v1) ?v2) (f44 (f45 (f46 f47 ?v3) ?v4) ?v5)))))
(assert (forall ((?v0 S29) (?v1 S29) (?v2 S29) (?v3 S55) (?v4 S29)) (not (= (f44 (f45 f51 ?v0) ?v1) (f44 (f98 (f99 f100 ?v2) ?v3) ?v4)))))
(assert (forall ((?v0 S29) (?v1 S29) (?v2 S3) (?v3 S52) (?v4 S29)) (not (= (f44 (f45 f51 ?v0) ?v1) (f44 (f95 (f96 f97 ?v2) ?v3) ?v4)))))
(assert (forall ((?v0 S29) (?v1 S55) (?v2 S29) (?v3 S29) (?v4 S29)) (not (= (f44 (f98 (f99 f100 ?v0) ?v1) ?v2) (f44 (f45 f51 ?v3) ?v4)))))
(check-sat)
(exit)
